p edge 150 1118
e 1 2
e 1 16
e 1 17
e 1 20
e 1 23
e 1 31
e 1 54
e 1 76
e 1 89
e 1 91
e 1 99
e 1 103
e 1 115
e 1 119
e 1 123
e 1 124
e 1 127
e 1 134
e 1 148
e 2 12
e 2 26
e 2 33
e 2 51
e 2 59
e 2 77
e 2 84
e 2 85
e 2 91
e 2 95
e 2 98
e 2 105
e 2 109
e 2 143
e 2 150
e 3 15
e 3 16
e 3 24
e 3 32
e 3 44
e 3 69
e 3 82
e 3 97
e 3 100
e 3 110
e 3 114
e 3 129
e 3 131
e 3 134
e 3 136
e 3 148
e 4 7
e 4 29
e 4 43
e 4 44
e 4 54
e 4 58
e 4 59
e 4 68
e 4 69
e 4 79
e 4 88
e 4 89
e 4 90
e 4 91
e 4 98
e 4 118
e 4 144
e 5 14
e 5 21
e 5 23
e 5 38
e 5 48
e 5 68
e 5 87
e 5 113
e 5 120
e 5 135
e 5 144
e 5 150
e 6 16
e 6 19
e 6 20
e 6 32
e 6 39
e 6 72
e 6 98
e 6 129
e 6 136
e 6 145
e 6 150
e 7 29
e 7 40
e 7 49
e 7 54
e 7 56
e 7 58
e 7 63
e 7 76
e 7 91
e 7 100
e 7 105
e 7 118
e 7 128
e 7 150
e 8 10
e 8 25
e 8 35
e 8 38
e 8 51
e 8 77
e 8 96
e 8 97
e 8 103
e 8 107
e 8 112
e 8 129
e 9 49
e 9 52
e 9 53
e 9 59
e 9 63
e 9 64
e 9 67
e 9 74
e 9 79
e 9 84
e 9 85
e 9 91
e 9 97
e 9 101
e 9 104
e 9 113
e 9 117
e 9 118
e 9 119
e 9 121
e 9 124
e 9 136
e 9 138
e 9 139
e 9 146
e 10 12
e 10 19
e 10 24
e 10 28
e 10 36
e 10 41
e 10 42
e 10 45
e 10 46
e 10 53
e 10 54
e 10 68
e 10 83
e 10 91
e 10 128
e 10 135
e 10 142
e 10 144
e 10 145
e 11 31
e 11 37
e 11 41
e 11 47
e 11 57
e 11 85
e 11 95
e 11 104
e 11 106
e 11 111
e 11 120
e 11 143
e 11 146
e 12 14
e 12 38
e 12 50
e 12 68
e 12 97
e 12 102
e 12 104
e 12 111
e 12 127
e 12 143
e 12 144
e 13 33
e 13 35
e 13 44
e 13 60
e 13 65
e 13 83
e 13 84
e 13 92
e 13 102
e 13 110
e 13 112
e 13 119
e 13 138
e 13 140
e 13 142
e 13 150
e 14 16
e 14 35
e 14 57
e 14 60
e 14 72
e 14 74
e 14 83
e 14 85
e 14 88
e 14 90
e 14 110
e 14 122
e 14 137
e 14 142
e 14 143
e 15 35
e 15 42
e 15 56
e 15 62
e 15 63
e 15 67
e 15 90
e 15 92
e 15 99
e 15 122
e 15 143
e 15 148
e 16 43
e 16 44
e 16 54
e 16 55
e 16 64
e 16 68
e 16 70
e 16 76
e 16 77
e 16 84
e 16 120
e 16 139
e 16 141
e 17 32
e 17 39
e 17 46
e 17 61
e 17 73
e 17 89
e 17 93
e 17 94
e 17 142
e 17 146
e 17 149
e 18 23
e 18 27
e 18 48
e 18 70
e 18 81
e 18 90
e 18 94
e 18 98
e 18 99
e 18 108
e 18 114
e 18 122
e 18 131
e 18 135
e 18 146
e 19 20
e 19 29
e 19 43
e 19 57
e 19 58
e 19 65
e 19 67
e 19 73
e 19 76
e 19 88
e 19 106
e 19 108
e 19 109
e 19 114
e 19 124
e 19 136
e 20 76
e 20 80
e 20 82
e 20 84
e 20 110
e 20 132
e 20 140
e 20 147
e 21 40
e 21 44
e 21 45
e 21 49
e 21 53
e 21 54
e 21 89
e 21 97
e 21 108
e 21 126
e 21 127
e 21 134
e 22 37
e 22 42
e 22 57
e 22 61
e 22 62
e 22 64
e 22 70
e 22 72
e 22 85
e 22 94
e 22 101
e 22 121
e 22 124
e 23 27
e 23 28
e 23 47
e 23 68
e 23 78
e 23 81
e 23 106
e 23 113
e 23 141
e 24 31
e 24 38
e 24 39
e 24 52
e 24 58
e 24 59
e 24 62
e 24 81
e 24 86
e 24 89
e 24 91
e 24 103
e 24 111
e 24 117
e 24 122
e 24 128
e 24 130
e 24 139
e 24 148
e 25 28
e 25 37
e 25 58
e 25 66
e 25 69
e 25 82
e 25 83
e 25 91
e 25 93
e 25 94
e 25 105
e 25 125
e 25 134
e 25 143
e 25 144
e 25 146
e 26 37
e 26 51
e 26 68
e 26 72
e 26 74
e 26 95
e 26 97
e 26 112
e 26 137
e 27 70
e 27 84
e 27 88
e 27 112
e 27 135
e 27 148
e 28 29
e 28 32
e 28 36
e 28 43
e 28 49
e 28 53
e 28 60
e 28 65
e 28 69
e 28 86
e 28 87
e 28 94
e 28 98
e 28 108
e 28 114
e 28 130
e 28 136
e 28 146
e 29 53
e 29 57
e 29 86
e 29 89
e 29 92
e 29 96
e 29 101
e 29 106
e 29 109
e 29 123
e 29 138
e 30 31
e 30 32
e 30 70
e 30 74
e 30 89
e 30 109
e 30 110
e 30 113
e 30 127
e 30 138
e 31 39
e 31 57
e 31 62
e 31 71
e 31 81
e 31 113
e 31 120
e 31 125
e 31 146
e 32 39
e 32 58
e 32 61
e 32 66
e 32 70
e 32 72
e 32 82
e 32 88
e 32 115
e 32 118
e 32 147
e 33 58
e 33 74
e 33 77
e 33 98
e 33 109
e 33 112
e 33 127
e 33 131
e 33 132
e 33 136
e 33 140
e 33 143
e 34 35
e 34 39
e 34 50
e 34 60
e 34 71
e 34 98
e 34 102
e 34 111
e 34 117
e 34 129
e 34 138
e 35 41
e 35 42
e 35 61
e 35 76
e 35 82
e 35 89
e 35 90
e 35 91
e 35 93
e 35 96
e 35 120
e 35 145
e 36 56
e 36 62
e 36 69
e 36 74
e 36 91
e 36 92
e 36 106
e 36 135
e 36 136
e 36 142
e 36 145
e 36 148
e 37 44
e 37 54
e 37 60
e 37 69
e 37 73
e 37 75
e 37 79
e 37 131
e 37 147
e 37 149
e 38 41
e 38 44
e 38 49
e 38 51
e 38 55
e 38 61
e 38 98
e 38 110
e 38 137
e 38 140
e 38 150
e 39 64
e 39 71
e 39 74
e 39 78
e 39 88
e 39 101
e 39 123
e 39 124
e 39 127
e 39 137
e 39 139
e 39 150
e 40 44
e 40 46
e 40 62
e 40 78
e 40 81
e 40 89
e 40 107
e 40 112
e 40 122
e 40 137
e 40 149
e 41 68
e 41 69
e 41 70
e 41 74
e 41 78
e 41 89
e 41 92
e 41 117
e 41 120
e 41 129
e 41 145
e 42 52
e 42 59
e 42 67
e 42 77
e 42 84
e 42 92
e 42 93
e 42 125
e 42 128
e 42 136
e 43 45
e 43 53
e 43 67
e 43 82
e 43 92
e 43 99
e 43 114
e 43 130
e 43 131
e 43 132
e 43 144
e 44 50
e 44 81
e 44 88
e 44 103
e 44 108
e 44 114
e 44 123
e 44 132
e 44 136
e 45 47
e 45 62
e 45 74
e 45 85
e 45 93
e 45 107
e 45 111
e 45 124
e 45 127
e 45 150
e 46 50
e 46 53
e 46 64
e 46 70
e 46 122
e 46 123
e 46 145
e 47 59
e 47 77
e 47 87
e 47 88
e 47 97
e 47 107
e 47 121
e 48 56
e 48 59
e 48 68
e 48 110
e 48 118
e 48 128
e 48 142
e 48 146
e 49 64
e 49 88
e 49 103
e 49 113
e 49 116
e 50 66
e 50 71
e 50 80
e 50 91
e 50 92
e 50 96
e 50 99
e 50 101
e 50 108
e 50 124
e 50 130
e 50 145
e 50 150
e 51 54
e 51 56
e 51 59
e 51 65
e 51 78
e 51 88
e 51 130
e 52 54
e 52 98
e 52 111
e 52 131
e 52 141
e 53 61
e 53 62
e 53 70
e 53 81
e 53 83
e 53 85
e 53 98
e 53 110
e 53 122
e 53 123
e 53 140
e 54 64
e 54 77
e 54 82
e 54 107
e 54 136
e 54 140
e 54 143
e 55 57
e 55 64
e 55 87
e 55 88
e 55 89
e 55 101
e 55 150
e 56 82
e 56 84
e 56 97
e 56 102
e 56 128
e 56 131
e 56 133
e 56 147
e 57 76
e 57 93
e 57 100
e 57 124
e 57 141
e 57 144
e 57 145
e 58 59
e 58 87
e 58 90
e 58 91
e 58 97
e 58 106
e 58 107
e 58 114
e 58 116
e 58 117
e 58 121
e 59 60
e 59 74
e 59 84
e 59 87
e 59 97
e 59 100
e 59 113
e 59 129
e 60 68
e 60 75
e 60 81
e 60 86
e 60 90
e 60 98
e 60 102
e 60 134
e 60 135
e 60 142
e 60 144
e 61 65
e 61 69
e 61 93
e 61 111
e 61 126
e 61 132
e 61 133
e 61 134
e 61 142
e 61 145
e 61 148
e 62 63
e 62 70
e 62 72
e 62 102
e 62 109
e 62 116
e 62 121
e 62 130
e 62 148
e 63 70
e 63 71
e 63 78
e 63 94
e 63 100
e 63 103
e 63 120
e 63 137
e 63 138
e 63 141
e 63 150
e 64 97
e 64 105
e 64 108
e 64 125
e 64 134
e 64 139
e 64 147
e 65 81
e 65 104
e 65 115
e 65 117
e 65 120
e 65 133
e 65 144
e 65 148
e 66 73
e 66 74
e 66 78
e 66 92
e 66 107
e 66 123
e 66 128
e 66 140
e 67 73
e 67 83
e 67 90
e 67 93
e 67 105
e 67 107
e 67 145
e 67 149
e 68 86
e 68 98
e 68 103
e 68 118
e 68 121
e 68 147
e 68 150
e 69 70
e 69 84
e 69 89
e 69 109
e 69 138
e 70 89
e 70 99
e 70 127
e 70 129
e 70 145
e 70 146
e 70 148
e 71 85
e 71 101
e 71 103
e 71 105
e 71 108
e 71 112
e 71 120
e 71 124
e 71 126
e 71 138
e 71 147
e 71 148
e 72 93
e 72 97
e 72 111
e 72 126
e 72 131
e 72 137
e 72 141
e 73 78
e 73 79
e 73 84
e 73 86
e 73 87
e 73 98
e 73 112
e 73 135
e 73 141
e 74 106
e 74 113
e 74 119
e 74 122
e 74 126
e 75 98
e 75 100
e 75 103
e 75 115
e 75 120
e 75 131
e 75 135
e 75 150
e 76 88
e 76 97
e 76 99
e 76 100
e 76 107
e 76 111
e 76 117
e 76 121
e 76 122
e 76 123
e 76 126
e 76 132
e 76 138
e 76 147
e 77 79
e 77 91
e 77 93
e 77 105
e 77 114
e 77 128
e 77 137
e 77 141
e 77 143
e 77 147
e 78 86
e 78 104
e 78 124
e 78 141
e 79 101
e 79 103
e 79 104
e 79 112
e 79 118
e 79 134
e 80 81
e 80 88
e 80 96
e 80 99
e 80 116
e 80 121
e 80 124
e 80 130
e 81 86
e 81 90
e 81 99
e 81 101
e 81 106
e 81 142
e 81 145
e 82 84
e 82 86
e 82 87
e 82 105
e 82 114
e 82 117
e 82 119
e 82 130
e 82 132
e 82 144
e 82 145
e 82 148
e 83 97
e 83 104
e 83 119
e 83 120
e 83 146
e 83 148
e 84 93
e 84 100
e 84 107
e 84 112
e 84 139
e 84 142
e 85 89
e 85 94
e 85 95
e 85 114
e 85 127
e 85 128
e 85 145
e 85 148
e 86 87
e 86 102
e 86 118
e 86 119
e 86 123
e 86 132
e 86 137
e 86 143
e 86 149
e 87 90
e 87 99
e 87 105
e 87 120
e 87 124
e 87 147
e 88 126
e 88 132
e 88 139
e 89 96
e 89 98
e 89 101
e 89 102
e 89 117
e 89 121
e 89 127
e 89 150
e 90 96
e 90 110
e 90 124
e 90 125
e 90 141
e 90 147
e 91 118
e 91 128
e 91 133
e 91 147
e 92 95
e 92 130
e 92 134
e 92 136
e 93 94
e 93 98
e 93 102
e 93 103
e 93 113
e 93 118
e 93 123
e 93 139
e 93 140
e 94 108
e 94 111
e 94 120
e 94 129
e 94 134
e 94 150
e 95 103
e 95 132
e 95 136
e 95 141
e 96 104
e 96 114
e 96 116
e 96 120
e 96 123
e 96 126
e 96 130
e 96 138
e 96 148
e 97 100
e 97 113
e 97 114
e 97 120
e 97 127
e 97 146
e 97 148
e 98 100
e 98 104
e 98 115
e 98 116
e 98 118
e 98 124
e 98 137
e 98 145
e 98 146
e 99 100
e 99 104
e 99 110
e 99 114
e 99 119
e 99 122
e 99 140
e 100 111
e 100 112
e 100 114
e 100 126
e 100 135
e 100 143
e 100 150
e 101 108
e 101 111
e 101 117
e 101 119
e 101 123
e 101 129
e 101 135
e 101 143
e 102 109
e 102 110
e 102 112
e 102 130
e 102 142
e 103 128
e 103 139
e 104 124
e 104 127
e 104 138
e 105 116
e 105 124
e 105 129
e 105 139
e 106 109
e 106 119
e 106 123
e 106 135
e 107 109
e 107 127
e 107 143
e 108 109
e 108 117
e 108 148
e 109 112
e 109 124
e 109 135
e 109 137
e 109 139
e 110 112
e 110 122
e 110 126
e 110 134
e 110 142
e 111 112
e 111 115
e 111 118
e 111 125
e 112 149
e 113 118
e 113 124
e 113 127
e 113 134
e 114 119
e 114 129
e 114 138
e 114 139
e 114 145
e 114 147
e 115 119
e 115 131
e 116 120
e 116 122
e 116 125
e 116 135
e 116 140
e 117 126
e 117 128
e 118 126
e 118 129
e 118 136
e 119 125
e 119 139
e 119 149
e 120 135
e 120 142
e 120 143
e 120 147
e 122 124
e 122 126
e 122 133
e 123 138
e 123 140
e 124 137
e 124 140
e 125 131
e 125 140
e 125 144
e 126 134
e 126 142
e 127 130
e 127 137
e 127 145
e 128 132
e 128 136
e 128 146
e 128 148
e 128 150
e 129 130
e 129 134
e 129 142
e 131 149
e 131 150
e 132 134
e 132 140
e 132 148
e 133 134
e 133 138
e 133 139
e 133 142
e 133 150
e 134 138
e 135 148
e 137 142
e 138 145
e 138 150
e 140 146
e 141 143
e 143 144
e 143 147
e 143 148
e 147 150
